2275451
0,2,225,207,176,41,72,121,142,114,220,124,192,137,15,109,206,198,68,64,75,29,136,195,54,101,67,141,216,32,37,210,191,100,183,115,95,74,49,150,86,196,171,91,174,179,76,40,120,167,131,181,84,113,172,60,79,118,22,69,125,217,205,158,99,98,52,17,53,55,104,65,105,127,189,201,215,23,140,42,146,162,59,166,50,208,85,97,44,102,186,149,185,170,169,168,80,228,132,154,111,70,66,73,6,4,96,222,47,7,3,20,89,145,223,21,25,160,214,204,106,165,5,108,87,227,116,61,26,107,27,34,88,93,77,143,144,35,156,1,148,190,203,218,221,229,119,133,110,16,153,151,112,159,184,14,45,43,71,161,82,62,19,182,209,30,177,63,224,163,173,199,200,83,226,193,12,13,24,58,211,212,92,78,135,10,9,18,219,8,90,175,188,139,134,48,117,126,38,178,36,33,129,39,128,152,202,103,81,157,123,194,28,51,56,147,197,164,57,138,46,213,180,187,130,94,122,11,155,31,0